data/rand/rand_064.gr
p tdp 15 38
1 2
1 14
1 15
2 14
2 15
3 4
3 5
3 7
3 9
3 10
3 15
4 6
4 7
4 10
4 12
4 13
5 13
5 15
6 7
6 9
6 11
6 12
7 11
7 12
7 13
7 15
8 13
9 12
9 15
10 11
10 13
11 12
11 13
11 15
12 13
12 14
12 15
13 15
