solutions/best/rand/rand_064.sol
8
12
1
0
12
13
11
4
13
6
13
7
15
11
2
3
